(set-info :smt-lib-version 2.6)
(set-logic QF_NIA)
(set-info :source |
     Constraint systems stating that a matrix interpretation is
     compatible with a rewriting system (weakly compatible with
     all rules, strictly compatible with at least one).

     Contributed by Johannes Waldmann at HTKW Leipzig.
   |)
(set-info :category "crafted")
(set-info :status sat)
(declare-fun n0 () Int)
(assert (>= n0 0))
(declare-fun n1 () Int)
(assert (>= n1 0))
(declare-fun n2 () Int)
(assert (>= n2 0))
(declare-fun n3 () Int)
(assert (>= n3 0))
(declare-fun n4 () Int)
(assert (>= n4 0))
(declare-fun n5 () Int)
(assert (>= n5 0))
(declare-fun n6 () Int)
(assert (>= n6 0))
(declare-fun n7 () Int)
(assert (>= n7 0))
(declare-fun n8 () Int)
(assert (= n8 (* n5 n4)))
(declare-fun n9 () Int)
(assert (= n9 (+ n4 n8)))
(declare-fun n10 () Int)
(assert (= n10 (* n5 n5)))
(declare-fun n11 () Int)
(assert (= n11 (* n7 n6)))
(declare-fun n12 () Int)
(assert (= n12 (+ n6 n11)))
(declare-fun n13 () Int)
(assert (= n13 (* n7 n7)))
(declare-fun n14 () Int)
(assert (= n14 (* n5 n6)))
(declare-fun n15 () Int)
(assert (= n15 (+ n4 n14)))
(declare-fun n16 () Int)
(assert (= n16 (* n5 n7)))
(declare-fun n17 () Int)
(assert (= n17 (* n16 n4)))
(declare-fun n18 () Int)
(assert (= n18 (+ n15 n17)))
(declare-fun n19 () Int)
(assert (= n19 (* n16 n5)))
(declare-fun n20 () Int)
(assert (= n20 (* n5 n12)))
(declare-fun n21 () Int)
(assert (= n21 (+ n4 n20)))
(declare-fun n22 () Int)
(assert (= n22 (* n5 n13)))
(declare-fun n23 () Int)
(assert (= n23 (* n10 n4)))
(declare-fun n24 () Int)
(assert (= n24 (+ n9 n23)))
(declare-fun n25 () Int)
(assert (= n25 (* n10 n5)))
(declare-fun n26 () Int)
(assert (= n26 (* n1 n9)))
(declare-fun n27 () Int)
(assert (= n27 (+ n0 n26)))
(declare-fun n28 () Int)
(assert (= n28 (* n1 n10)))
(declare-fun n29 () Int)
(assert (= n29 (* n7 n4)))
(declare-fun n30 () Int)
(assert (= n30 (+ n6 n29)))
(declare-fun n31 () Int)
(assert (= n31 (* n7 n5)))
(declare-fun n32 () Int)
(assert (= n32 (* n10 n6)))
(declare-fun n33 () Int)
(assert (= n33 (+ n9 n32)))
(declare-fun n34 () Int)
(assert (= n34 (* n10 n7)))
(declare-fun n35 () Int)
(assert (= n35 (* n13 n6)))
(declare-fun n36 () Int)
(assert (= n36 (+ n12 n35)))
(declare-fun n37 () Int)
(assert (= n37 (* n13 n7)))
(declare-fun n38 () Int)
(assert (= n38 (* n7 n18)))
(declare-fun n39 () Int)
(assert (= n39 (+ n6 n38)))
(declare-fun n40 () Int)
(assert (= n40 (* n7 n19)))
(declare-fun n41 () Int)
(assert (= n41 (* n10 n12)))
(declare-fun n42 () Int)
(assert (= n42 (+ n9 n41)))
(declare-fun n43 () Int)
(assert (= n43 (* n10 n13)))
(declare-fun n44 () Int)
(assert (= n44 (* n13 n36)))
(declare-fun n45 () Int)
(assert (= n45 (+ n12 n44)))
(declare-fun n46 () Int)
(assert (= n46 (* n13 n37)))
(declare-fun n47 () Int)
(assert (= n47 (* n16 n24)))
(declare-fun n48 () Int)
(assert (= n48 (+ n15 n47)))
(declare-fun n49 () Int)
(assert (= n49 (* n16 n25)))
(declare-fun n50 () Int)
(assert (= n50 (* n28 n30)))
(declare-fun n51 () Int)
(assert (= n51 (+ n27 n50)))
(declare-fun n52 () Int)
(assert (= n52 (* n28 n31)))
(declare-fun n53 () Int)
(assert (= n53 (* n1 n39)))
(declare-fun n54 () Int)
(assert (= n54 (+ n0 n53)))
(declare-fun n55 () Int)
(assert (= n55 (* n1 n40)))
(declare-fun n56 () Int)
(assert (= n56 (* n7 n21)))
(declare-fun n57 () Int)
(assert (= n57 (+ n6 n56)))
(declare-fun n58 () Int)
(assert (= n58 (* n7 n22)))
(declare-fun n59 () Int)
(assert (= n59 (* n7 n42)))
(declare-fun n60 () Int)
(assert (= n60 (+ n6 n59)))
(declare-fun n61 () Int)
(assert (= n61 (* n7 n43)))
(declare-fun n62 () Int)
(assert (= n62 (* n28 n6)))
(declare-fun n63 () Int)
(assert (= n63 (+ n27 n62)))
(declare-fun n64 () Int)
(assert (= n64 (* n28 n7)))
(declare-fun n65 () Int)
(assert (= n65 (* n58 n6)))
(declare-fun n66 () Int)
(assert (= n66 (+ n57 n65)))
(declare-fun n67 () Int)
(assert (= n67 (* n58 n7)))
(declare-fun n68 () Int)
(assert (= n68 (* n1 n12)))
(declare-fun n69 () Int)
(assert (= n69 (+ n0 n68)))
(declare-fun n70 () Int)
(assert (= n70 (* n1 n13)))
(declare-fun n71 () Int)
(assert (= n71 (* n1 n21)))
(declare-fun n72 () Int)
(assert (= n72 (+ n0 n71)))
(declare-fun n73 () Int)
(assert (= n73 (* n1 n22)))
(declare-fun n74 () Int)
(assert (= n74 (* n1 n36)))
(declare-fun n75 () Int)
(assert (= n75 (+ n0 n74)))
(declare-fun n76 () Int)
(assert (= n76 (* n1 n37)))
(declare-fun n77 () Int)
(assert (= n77 (* n28 n9)))
(declare-fun n78 () Int)
(assert (= n78 (+ n27 n77)))
(declare-fun n79 () Int)
(assert (= n79 (* n28 n10)))
(declare-fun n80 () Int)
(assert (= n80 (* n64 n24)))
(declare-fun n81 () Int)
(assert (= n81 (+ n63 n80)))
(declare-fun n82 () Int)
(assert (= n82 (* n64 n25)))
(assert (>= n78 n81))
(assert (>= n79 n82))
(declare-fun n83 () Int)
(assert (= n83 (* n73 n33)))
(declare-fun n84 () Int)
(assert (= n84 (+ n72 n83)))
(declare-fun n85 () Int)
(assert (= n85 (* n73 n34)))
(assert (>= n51 n84))
(assert (>= n52 n85))
(declare-fun n86 () Int)
(assert (= n86 (* n70 n33)))
(declare-fun n87 () Int)
(assert (= n87 (+ n69 n86)))
(declare-fun n88 () Int)
(assert (= n88 (* n70 n34)))
(assert (>= n51 n87))
(assert (>= n52 n88))
(declare-fun n89 () Int)
(assert (= n89 (* n76 n15)))
(declare-fun n90 () Int)
(assert (= n90 (+ n75 n89)))
(declare-fun n91 () Int)
(assert (= n91 (* n76 n16)))
(assert (>= n54 n90))
(assert (>= n55 n91))
(declare-fun n92 () Int)
(assert (= n92 (* n1 n6)))
(declare-fun n93 () Int)
(assert (= n93 (+ n0 n92)))
(declare-fun n94 () Int)
(assert (= n94 (* n1 n7)))
(assert (>= n54 n93))
(assert (>= n55 n94))
(assert (>= n18 n36))
(assert (>= n19 n37))
(declare-fun n95 () Int)
(assert (= n95 (* n22 n4)))
(declare-fun n96 () Int)
(assert (= n96 (+ n21 n95)))
(declare-fun n97 () Int)
(assert (= n97 (* n22 n5)))
(assert (>= n96 n45))
(assert (>= n97 n46))
(declare-fun n98 () Int)
(assert (= n98 (* n10 n24)))
(declare-fun n99 () Int)
(assert (= n99 (+ n9 n98)))
(declare-fun n100 () Int)
(assert (= n100 (* n10 n25)))
(declare-fun n101 () Int)
(assert (= n101 (* n10 n48)))
(declare-fun n102 () Int)
(assert (= n102 (+ n9 n101)))
(declare-fun n103 () Int)
(assert (= n103 (* n10 n49)))
(assert (>= n99 n102))
(assert (>= n100 n103))
(declare-fun n104 () Int)
(assert (= n104 (* n10 n18)))
(declare-fun n105 () Int)
(assert (= n105 (+ n9 n104)))
(declare-fun n106 () Int)
(assert (= n106 (* n10 n19)))
(declare-fun n107 () Int)
(assert (= n107 (* n43 n33)))
(declare-fun n108 () Int)
(assert (= n108 (+ n42 n107)))
(declare-fun n109 () Int)
(assert (= n109 (* n43 n34)))
(assert (>= n105 n108))
(assert (>= n106 n109))
(declare-fun n110 () Int)
(assert (= n110 (* n61 n9)))
(declare-fun n111 () Int)
(assert (= n111 (+ n60 n110)))
(declare-fun n112 () Int)
(assert (= n112 (* n61 n10)))
(assert (>= n48 n111))
(assert (>= n49 n112))
(declare-fun n113 () Int)
(assert (= n113 (* n16 n18)))
(declare-fun n114 () Int)
(assert (= n114 (+ n15 n113)))
(declare-fun n115 () Int)
(assert (= n115 (* n16 n19)))
(declare-fun n116 () Int)
(assert (= n116 (* n67 n15)))
(declare-fun n117 () Int)
(assert (= n117 (+ n66 n116)))
(declare-fun n118 () Int)
(assert (= n118 (* n67 n16)))
(assert (>= n114 n117))
(assert (>= n115 n118))
(declare-fun n119 () Int)
(assert (= n119 (* n22 n30)))
(declare-fun n120 () Int)
(assert (= n120 (+ n21 n119)))
(declare-fun n121 () Int)
(assert (= n121 (* n22 n31)))
(declare-fun n122 () Int)
(assert (= n122 (* n13 n45)))
(declare-fun n123 () Int)
(assert (= n123 (+ n12 n122)))
(declare-fun n124 () Int)
(assert (= n124 (* n13 n46)))
(assert (>= n120 n123))
(assert (>= n121 n124))
(assert (or (> n78 n81) (> n51 n84) (> n51 n87) (> n54 n90) (> n54 n93)))
(assert (<= n0 100))
(assert (<= n1 100))
(assert (<= 0 n10))
(assert (<= n10 100))
(assert (<= 0 n100))
(assert (<= n100 100))
(assert (<= 0 n101))
(assert (<= n101 100))
(assert (<= 0 n102))
(assert (<= n102 100))
(assert (<= 0 n103))
(assert (<= n103 100))
(assert (<= 0 n104))
(assert (<= n104 100))
(assert (<= 0 n105))
(assert (<= n105 100))
(assert (<= 0 n106))
(assert (<= n106 100))
(assert (<= 0 n107))
(assert (<= n107 100))
(assert (<= 0 n108))
(assert (<= n108 100))
(assert (<= 0 n109))
(assert (<= n109 100))
(assert (<= 0 n11))
(assert (<= n11 100))
(assert (<= 0 n110))
(assert (<= n110 100))
(assert (<= 0 n111))
(assert (<= n111 100))
(assert (<= 0 n112))
(assert (<= n112 100))
(assert (<= 0 n113))
(assert (<= n113 100))
(assert (<= 0 n114))
(assert (<= n114 100))
(assert (<= 0 n115))
(assert (<= n115 100))
(assert (<= 0 n116))
(assert (<= n116 100))
(assert (<= 0 n117))
(assert (<= n117 100))
(assert (<= 0 n118))
(assert (<= n118 100))
(assert (<= 0 n119))
(assert (<= n119 100))
(assert (<= 0 n12))
(assert (<= n12 100))
(assert (<= 0 n120))
(assert (<= n120 100))
(assert (<= 0 n121))
(assert (<= n121 100))
(assert (<= 0 n122))
(assert (<= n122 100))
(assert (<= 0 n123))
(assert (<= n123 100))
(assert (<= 0 n124))
(assert (<= n124 100))
(assert (<= 0 n13))
(assert (<= n13 100))
(assert (<= 0 n14))
(assert (<= n14 100))
(assert (<= 0 n15))
(assert (<= n15 100))
(assert (<= 0 n16))
(assert (<= n16 100))
(assert (<= 0 n17))
(assert (<= n17 100))
(assert (<= 0 n18))
(assert (<= n18 100))
(assert (<= 0 n19))
(assert (<= n19 100))
(assert (<= n2 100))
(assert (<= 0 n20))
(assert (<= n20 100))
(assert (<= 0 n21))
(assert (<= n21 100))
(assert (<= 0 n22))
(assert (<= n22 100))
(assert (<= 0 n23))
(assert (<= n23 100))
(assert (<= 0 n24))
(assert (<= n24 100))
(assert (<= 0 n25))
(assert (<= n25 100))
(assert (<= 0 n26))
(assert (<= n26 100))
(assert (<= 0 n27))
(assert (<= n27 100))
(assert (<= 0 n28))
(assert (<= n28 100))
(assert (<= 0 n29))
(assert (<= n29 100))
(assert (<= n3 100))
(assert (<= 0 n30))
(assert (<= n30 100))
(assert (<= 0 n31))
(assert (<= n31 100))
(assert (<= 0 n32))
(assert (<= n32 100))
(assert (<= 0 n33))
(assert (<= n33 100))
(assert (<= 0 n34))
(assert (<= n34 100))
(assert (<= 0 n35))
(assert (<= n35 100))
(assert (<= 0 n36))
(assert (<= n36 100))
(assert (<= 0 n37))
(assert (<= n37 100))
(assert (<= 0 n38))
(assert (<= n38 100))
(assert (<= 0 n39))
(assert (<= n39 100))
(assert (<= n4 100))
(assert (<= 0 n40))
(assert (<= n40 100))
(assert (<= 0 n41))
(assert (<= n41 100))
(assert (<= 0 n42))
(assert (<= n42 100))
(assert (<= 0 n43))
(assert (<= n43 100))
(assert (<= 0 n44))
(assert (<= n44 100))
(assert (<= 0 n45))
(assert (<= n45 100))
(assert (<= 0 n46))
(assert (<= n46 100))
(assert (<= 0 n47))
(assert (<= n47 100))
(assert (<= 0 n48))
(assert (<= n48 100))
(assert (<= 0 n49))
(assert (<= n49 100))
(assert (<= n5 100))
(assert (<= 0 n50))
(assert (<= n50 100))
(assert (<= 0 n51))
(assert (<= n51 100))
(assert (<= 0 n52))
(assert (<= n52 100))
(assert (<= 0 n53))
(assert (<= n53 100))
(assert (<= 0 n54))
(assert (<= n54 100))
(assert (<= 0 n55))
(assert (<= n55 100))
(assert (<= 0 n56))
(assert (<= n56 100))
(assert (<= 0 n57))
(assert (<= n57 100))
(assert (<= 0 n58))
(assert (<= n58 100))
(assert (<= 0 n59))
(assert (<= n59 100))
(assert (<= n6 100))
(assert (<= 0 n60))
(assert (<= n60 100))
(assert (<= 0 n61))
(assert (<= n61 100))
(assert (<= 0 n62))
(assert (<= n62 100))
(assert (<= 0 n63))
(assert (<= n63 100))
(assert (<= 0 n64))
(assert (<= n64 100))
(assert (<= 0 n65))
(assert (<= n65 100))
(assert (<= 0 n66))
(assert (<= n66 100))
(assert (<= 0 n67))
(assert (<= n67 100))
(assert (<= 0 n68))
(assert (<= n68 100))
(assert (<= 0 n69))
(assert (<= n69 100))
(assert (<= n7 100))
(assert (<= 0 n70))
(assert (<= n70 100))
(assert (<= 0 n71))
(assert (<= n71 100))
(assert (<= 0 n72))
(assert (<= n72 100))
(assert (<= 0 n73))
(assert (<= n73 100))
(assert (<= 0 n74))
(assert (<= n74 100))
(assert (<= 0 n75))
(assert (<= n75 100))
(assert (<= 0 n76))
(assert (<= n76 100))
(assert (<= 0 n77))
(assert (<= n77 100))
(assert (<= 0 n78))
(assert (<= n78 100))
(assert (<= 0 n79))
(assert (<= n79 100))
(assert (<= 0 n8))
(assert (<= n8 100))
(assert (<= 0 n80))
(assert (<= n80 100))
(assert (<= 0 n81))
(assert (<= n81 100))
(assert (<= 0 n82))
(assert (<= n82 100))
(assert (<= 0 n83))
(assert (<= n83 100))
(assert (<= 0 n84))
(assert (<= n84 100))
(assert (<= 0 n85))
(assert (<= n85 100))
(assert (<= 0 n86))
(assert (<= n86 100))
(assert (<= 0 n87))
(assert (<= n87 100))
(assert (<= 0 n88))
(assert (<= n88 100))
(assert (<= 0 n89))
(assert (<= n89 100))
(assert (<= 0 n9))
(assert (<= n9 100))
(assert (<= 0 n90))
(assert (<= n90 100))
(assert (<= 0 n91))
(assert (<= n91 100))
(assert (<= 0 n92))
(assert (<= n92 100))
(assert (<= 0 n93))
(assert (<= n93 100))
(assert (<= 0 n94))
(assert (<= n94 100))
(assert (<= 0 n95))
(assert (<= n95 100))
(assert (<= 0 n96))
(assert (<= n96 100))
(assert (<= 0 n97))
(assert (<= n97 100))
(assert (<= 0 n98))
(assert (<= n98 100))
(assert (<= 0 n99))
(assert (<= n99 100))
(check-sat)
(exit)
